; benchmark generated from python API
(set-info :status unknown)
(declare-fun x_month () Int)
(declare-fun x_day () Int)
(declare-fun x_year () Int)
(assert
 (>= x_month 1))
(assert
 (<= x_month 12))
(assert
 (>= x_day 1))
(assert
 (<= x_day 31))
(assert
 (let (($x306 (<= x_day 28)))
 (let (($x272 (<= x_day 29)))
 (let (($x292 (= (mod x_year 400) 0)))
 (let (($x314 (= (mod x_year 4) 0)))
 (let (($x290 (ite (or (and $x314 (and (distinct (mod x_year 100) 0) true)) $x292) $x272 $x306)))
 (let (($x316 (= x_month 2)))
 (ite $x316 $x290 true))))))))
(assert
 (let (($x344 (<= x_day 30)))
 (let (($x337 (or (= x_month 4) (= x_month 6) (= x_month 9) (= x_month 11))))
 (ite $x337 $x344 true))))
(assert
 (let (($x356 (= x_year 2020)))
 (let (($x301 (and $x356 (or (> x_month 1) (and (= x_month 1) (>= x_day 1))))))
 (or (> x_year 2020) $x301))))
(assert
 (let (($x356 (= x_year 2020)))
 (let (($x331 (and $x356 (or (< x_month 2) (and (= x_month 2) (<= x_day 28))))))
 (or (< x_year 2020) $x331))))
(assert
 (let (($x147 (or (= (+ (mod (- (+ x_month 0) 1) 12) 1) 4) (= (+ (mod (- (+ x_month 0) 1) 12) 1) 6) (= (+ (mod (- (+ x_month 0) 1) 12) 1) 9) (= (+ (mod (- (+ x_month 0) 1) 12) 1) 11))))
(let ((?x333 (ite $x147 30 31)))
(let ((?x276 (- (+ x_month 0) 1)))
(let ((?x277 (div ?x276 12)))
(let ((?x476 (+ (+ x_year 0) ?x277)))
(let (($x484 (or (and (= (mod ?x476 4) 0) (and (distinct (mod ?x476 100) 0) true)) (= (mod ?x476 400) 0))))
(let ((?x228 (+ (mod ?x276 12) 1)))
(let (($x160 (= ?x228 2)))
(let ((?x487 (ite $x160 (ite $x484 29 28) ?x333)))
(let (($x336 (< x_day 1)))
(let ((?x490 (ite $x336 1 (ite (> x_day ?x487) ?x487 x_day))))
(let ((?x548 (ite (< ?x490 1) 1 (ite (> ?x490 ?x487) ?x487 ?x490))))
(let (($x561 (and (= (mod (+ ?x476 (* (div 365 146097) 400)) 4) 0) (and (distinct (mod (+ ?x476 (* (div 365 146097) 400)) 100) 0) true))))
(let (($x648 (or $x561 (= (mod (+ ?x476 (* (div 365 146097) 400)) 400) 0))))
(let (($x126 (= 1 ?x228)))
(let (($x389 (= 2 ?x228)))
(let ((?x571 (ite $x389 (ite $x648 31 31) (ite $x126 (ite $x648 0 0) 0))))
(let (($x364 (= 3 ?x228)))
(let (($x383 (= 4 ?x228)))
(let ((?x575 (ite $x383 (ite $x648 91 90) (ite $x364 (ite $x648 60 59) ?x571))))
(let (($x102 (= 5 ?x228)))
(let (($x377 (= 6 ?x228)))
(let ((?x590 (ite $x377 (ite $x648 152 151) (ite $x102 (ite $x648 121 120) ?x575))))
(let (($x122 (= 7 ?x228)))
(let (($x368 (= 8 ?x228)))
(let ((?x588 (ite $x368 (ite $x648 213 212) (ite $x122 (ite $x648 182 181) ?x590))))
(let (($x376 (= 9 ?x228)))
(let (($x382 (= 10 ?x228)))
(let ((?x586 (ite $x382 (ite $x648 274 273) (ite $x376 (ite $x648 244 243) ?x588))))
(let (($x388 (= 11 ?x228)))
(let (($x140 (= 12 ?x228)))
(let ((?x584 (ite $x140 (ite $x648 335 334) (ite $x388 (ite $x648 305 304) ?x586))))
(let ((?x566 (+ (* 365 (- (+ ?x476 (* (div 365 146097) 400)) 1)) (div (- (+ ?x476 (* (div 365 146097) 400)) 1) 4))))
(let ((?x567 (+ (- ?x566 (div (- (+ ?x476 (* (div 365 146097) 400)) 1) 100)) (div (- (+ ?x476 (* (div 365 146097) 400)) 1) 400))))
(let ((?x582 (+ (+ (+ ?x567 ?x584) (- ?x548 1)) (mod 365 146097))))
(let ((?x581 (mod ?x582 146097)))
(let ((?x593 (div ?x581 36524)))
(let ((?x591 (ite (<= 4 ?x593) 3 ?x593)))
(let ((?x594 (- ?x581 (* ?x591 36524))))
(let ((?x598 (mod ?x594 1461)))
(let ((?x600 (div ?x598 365)))
(let ((?x604 (ite (<= 4 ?x600) 3 ?x600)))
(let ((?x645 (+ (+ (* (div ?x582 146097) 400) (* ?x591 100)) (* (div ?x594 1461) 4))))
(let ((?x642 (+ (+ ?x645 ?x604) 1)))
(let (($x630 (or (and (= (mod ?x642 4) 0) (and (distinct (mod ?x642 100) 0) true)) (= (mod ?x642 400) 0))))
(let ((?x608 (- ?x598 (* ?x604 365))))
(let ((?x627 (ite $x630 31 31)))
(let (($x613 (>= ?x608 ?x627)))
(let ((?x235 (ite $x613 (+ (- ?x608 ?x627) 1) (+ (- ?x608 (ite $x630 0 0)) 1))))
(let ((?x628 (ite $x630 60 59)))
(let (($x617 (>= ?x608 ?x628)))
(let ((?x624 (ite $x630 91 90)))
(let (($x623 (>= ?x608 ?x624)))
(let ((?x251 (ite $x623 (+ (- ?x608 ?x624) 1) (ite $x617 (+ (- ?x608 ?x628) 1) ?x235))))
(let ((?x625 (ite $x630 121 120)))
(let (($x629 (>= ?x608 ?x625)))
(let ((?x621 (ite $x630 152 151)))
(let (($x635 (>= ?x608 ?x621)))
(let ((?x217 (ite $x635 (+ (- ?x608 ?x621) 1) (ite $x629 (+ (- ?x608 ?x625) 1) ?x251))))
(let ((?x622 (ite $x630 182 181)))
(let (($x641 (>= ?x608 ?x622)))
(let ((?x618 (ite $x630 213 212)))
(let (($x647 (>= ?x608 ?x618)))
(let ((?x227 (ite $x647 (+ (- ?x608 ?x618) 1) (ite $x641 (+ (- ?x608 ?x622) 1) ?x217))))
(let ((?x619 (ite $x630 244 243)))
(let (($x458 (>= ?x608 ?x619)))
(let ((?x615 (ite $x630 274 273)))
(let (($x134 (>= ?x608 ?x615)))
(let ((?x168 (ite $x134 (+ (- ?x608 ?x615) 1) (ite $x458 (+ (- ?x608 ?x619) 1) ?x227))))
(let ((?x616 (ite $x630 305 304)))
(let (($x179 (>= ?x608 ?x616)))
(let ((?x579 (ite $x630 335 334)))
(let (($x181 (>= ?x608 ?x579)))
(let ((?x213 (ite $x181 (+ (- ?x608 ?x579) 1) (ite $x179 (+ (- ?x608 ?x616) 1) ?x168))))
(let (($x549 (= 0 365)))
(let (($x281 (and (= (mod (+ (+ x_year 1) ?x277) 4) 0) (and (distinct (mod (+ (+ x_year 1) ?x277) 100) 0) true))))
(let ((?x286 (ite (or $x281 (= (mod (+ (+ x_year 1) ?x277) 400) 0)) 29 28)))
(let ((?x324 (ite $x160 ?x286 ?x333)))
(let ((?x148 (ite $x336 1 (ite (> x_day ?x324) ?x324 x_day))))
(let ((?x327 (ite (< ?x148 1) 1 (ite (> ?x148 ?x324) ?x324 ?x148))))
(let ((?x161 (+ (+ x_year 1) ?x277)))
(let ((?x357 (+ ?x161 (* (div 0 146097) 400))))
(let (($x374 (or (and (= (mod ?x357 4) 0) (and (distinct (mod ?x357 100) 0) true)) (= (mod ?x357 400) 0))))
(let ((?x387 (ite $x389 (ite $x374 31 31) (ite $x126 (ite $x374 0 0) 0))))
(let ((?x381 (ite $x383 (ite $x374 91 90) (ite $x364 (ite $x374 60 59) ?x387))))
(let ((?x375 (ite $x377 (ite $x374 152 151) (ite $x102 (ite $x374 121 120) ?x381))))
(let ((?x365 (ite $x368 (ite $x374 213 212) (ite $x122 (ite $x374 182 181) ?x375))))
(let ((?x386 (ite $x382 (ite $x374 274 273) (ite $x376 (ite $x374 244 243) ?x365))))
(let ((?x373 (ite $x140 (ite $x374 335 334) (ite $x388 (ite $x374 305 304) ?x386))))
(let ((?x257 (- (+ (* 365 (- ?x357 1)) (div (- ?x357 1) 4)) (div (- ?x357 1) 100))))
(let ((?x413 (+ (+ (+ (+ ?x257 (div (- ?x357 1) 400)) ?x373) (- ?x327 1)) (mod 0 146097))))
(let ((?x401 (mod ?x413 146097)))
(let ((?x361 (div ?x401 36524)))
(let ((?x402 (ite (<= 4 ?x361) 3 ?x361)))
(let ((?x409 (- ?x401 (* ?x402 36524))))
(let ((?x103 (mod ?x409 1461)))
(let ((?x406 (div ?x103 365)))
(let ((?x399 (ite (<= 4 ?x406) 3 ?x406)))
(let ((?x415 (+ (+ (* (div ?x413 146097) 400) (* ?x402 100)) (* (div ?x409 1461) 4))))
(let ((?x412 (+ (+ ?x415 ?x399) 1)))
(let (($x154 (or (and (= (mod ?x412 4) 0) (and (distinct (mod ?x412 100) 0) true)) (= (mod ?x412 400) 0))))
(let ((?x398 (- ?x103 (* ?x399 365))))
(let ((?x196 (ite $x154 31 31)))
(let (($x497 (>= ?x398 ?x196)))
(let ((?x529 (ite $x497 (+ (- ?x398 ?x196) 1) (+ (- ?x398 (ite $x154 0 0)) 1))))
(let ((?x142 (ite $x154 60 59)))
(let (($x499 (>= ?x398 ?x142)))
(let ((?x461 (ite $x154 91 90)))
(let (($x501 (>= ?x398 ?x461)))
(let ((?x520 (ite $x501 (+ (- ?x398 ?x461) 1) (ite $x499 (+ (- ?x398 ?x142) 1) ?x529))))
(let ((?x462 (ite $x154 121 120)))
(let (($x467 (>= ?x398 ?x462)))
(let ((?x463 (ite $x154 152 151)))
(let (($x503 (>= ?x398 ?x463)))
(let ((?x511 (ite $x503 (+ (- ?x398 ?x463) 1) (ite $x467 (+ (- ?x398 ?x462) 1) ?x520))))
(let ((?x464 (ite $x154 182 181)))
(let (($x505 (>= ?x398 ?x464)))
(let ((?x466 (ite $x154 213 212)))
(let (($x507 (>= ?x398 ?x466)))
(let ((?x527 (ite $x507 (+ (- ?x398 ?x466) 1) (ite $x505 (+ (- ?x398 ?x464) 1) ?x511))))
(let ((?x493 (ite $x154 244 243)))
(let (($x509 (>= ?x398 ?x493)))
(let ((?x494 (ite $x154 274 273)))
(let (($x544 (>= ?x398 ?x494)))
(let ((?x545 (ite $x544 (+ (- ?x398 ?x494) 1) (ite $x509 (+ (- ?x398 ?x493) 1) ?x527))))
(let ((?x495 (ite $x154 305 304)))
(let (($x541 (>= ?x398 ?x495)))
(let ((?x496 (ite $x154 335 334)))
(let (($x538 (>= ?x398 ?x496)))
(let ((?x471 (ite $x538 (+ (- ?x398 ?x496) 1) (ite $x541 (+ (- ?x398 ?x495) 1) ?x545))))
(let (($x351 (= 0 0)))
(let ((?x632 (ite $x629 5 (ite $x623 4 (ite $x617 3 (ite $x613 2 1))))))
(let ((?x651 (ite $x458 9 (ite $x647 8 (ite $x641 7 (ite $x635 6 ?x632))))))
(let ((?x182 (ite $x181 12 (ite $x179 11 (ite $x134 10 ?x651)))))
(let ((?x543 (ite $x467 5 (ite $x501 4 (ite $x499 3 (ite $x497 2 1))))))
(let ((?x510 (ite $x509 9 (ite $x507 8 (ite $x505 7 (ite $x503 6 ?x543))))))
(let (($x212 (= (ite $x351 ?x228 (ite $x538 12 (ite $x541 11 (ite $x544 10 ?x510)))) (ite $x549 ?x228 ?x182))))
(let (($x204 (and (= (ite $x351 ?x161 ?x412) (ite $x549 ?x476 ?x642)) $x212 (= (ite $x351 ?x327 ?x471) (ite $x549 ?x548 ?x213)))))
(not $x204))))))))))))))))))))))))))))))))))))))))))))))))))))))))))))))))))))))))))))))))))))))))))))))))))))))))))))))))))))))))))))))))))))))))))))
(check-sat)
